59, 3683
5736, 653
5881, 660
2084, 740
1699, 943
3974, 711
3421, 930
2844, 973
3496, 940
4775, 689
4143, 783
5100, 782
3259, 974
4071, 699
5674, 515
4901, 610
5062, 702
1329, 662
1249, 966
2300, 546
5927, 975
4442, 950
2866, 595
3039, 872
5126, 847
3115, 556
1660, 982
3274, 949
2353, 552
2917, 910
2519, 584
5260, 850
5663, 914
4385, 517
5038, 684
4504, 997
2769, 609
3927, 679
3763, 955
3332, 618
3766, 616
5043, 898
1266, 544
1720, 548
3846, 640
1571, 862
1722, 663
3812, 873
3439, 884
1020, 782
2111, 589
3715, 746
4326, 675
2219, 899
1297, 660
5458, 645
5890, 766
4560, 679
5396, 969
5656, 855